certificates/rado_a7_c23_N13.cnf
c Rad2 upper bound instance: x1 + 7*x2 - x3 = 23, interval [1,13]
p cnf 13 48
1 4 6 0
-1 -4 -6 0
1 5 13 0
-1 -5 -13 0
2 4 7 0
-2 -4 -7 0
1 3 0
-1 -3 0
3 4 8 0
-3 -4 -8 0
2 3 4 0
-2 -3 -4 0
4 9 0
-4 -9 0
3 5 0
-3 -5 0
4 5 10 0
-4 -5 -10 0
3 4 6 0
-3 -4 -6 0
4 6 11 0
-4 -6 -11 0
3 5 7 0
-3 -5 -7 0
4 7 12 0
-4 -7 -12 0
3 6 8 0
-3 -6 -8 0
4 8 13 0
-4 -8 -13 0
3 7 9 0
-3 -7 -9 0
1 2 10 0
-1 -2 -10 0
3 8 10 0
-3 -8 -10 0
2 11 0
-2 -11 0
3 9 11 0
-3 -9 -11 0
2 3 12 0
-2 -3 -12 0
3 10 12 0
-3 -10 -12 0
2 4 13 0
-2 -4 -13 0
3 11 13 0
-3 -11 -13 0
