certificates/rado_a7_c23_N13.drat
3 -13 0
-12 -3 0
-3 -13 0
d -11 -3 -13 0
-13 0
-3 0
1 0
5 0
11 0
-2 0
4 0
12 0
-9 0
-7 0
-6 0
-10 0
0
